c instance by G2
c solution = 11001100101
c Known solution cost is 371 
p cnf 11 30
w 21 30 86 5 65 8 13 47 31 48 17
1 8 7 0
2 5 -7 0
11 -1 -4 0
10 5 -11 0
-10 4 -5 0
2 -4 8 0
-11 -7 -2 0
8 10 9 0
-2 10 -8 0
6 3 8 0
-4 -2 6 0
-2 3 -7 0
-4 8 -11 0
-3 1 2 0
-3 5 1 0
7 10 6 0
8 -3 6 0
10 -11 6 0
3 -8 4 0
7 -3 -2 0
-10 2 5 0
2 7 -9 0
-2 7 1 0
3 -4 2 0
-9 -8 4 0
1 -7 5 0
4 11 9 0
-1 11 -5 0
-2 -7 -10 0
11 2 7 0
